NAME : portcgen-21-5
COMMENT : portcgen N=21, seed=5
TYPE : TSP
DIMENSION : 21
EDGE_WEIGHT_TYPE : EUC_2D
NODE_COORD_SECTION
1 159058 18157
2 67476 -17285
3 32156 48639
4 -235313 305668
5 -249906 32894
6 20088 -39166
7 148516 189669
8 201591 215398
9 35659 -232917
10 223343 9896
11 23757 -159018
12 126480 196323
13 -104579 362942
14 -51035 176169
15 -74004 80641
16 415475 275240
17 -220529 198864
18 -92173 364158
19 308810 43083
20 76274 67520
21 -84194 178663
